
Gurobi 9.1.2 (linux64) logging started Sun Mar 20 18:10:50 2022

Changed value of parameter LogFile to bruhat-s=6.log
   Prev:   Default: 
Changed value of parameter MIPFocus to 1
   Prev: 0  Min: 0  Max: 3  Default: 0
Changed value of parameter Threads to 32
   Prev: 0  Min: 0  Max: 1024  Default: 0
Warning: variables 0 and 120 have the same name "X[1,0]"
Warning: linear constraint 150 and linear constraint 151 have the same name "weight-constr-t5"
Warning: to let Gurobi read it back, use rlp format
Gurobi Optimizer version 9.1.2 build v9.1.2rc0 (linux64)
Thread count: 16 physical cores, 32 logical processors, using up to 32 threads
Optimize a model with 857 rows, 720 columns and 2496 nonzeros
Model fingerprint: 0xa650ffca
Variable types: 144 continuous, 576 integer (576 binary)
Coefficient statistics:
  Matrix range     [1e+00, 3e+02]
  Objective range  [2e-01, 2e-01]
  Bounds range     [1e+00, 1e+02]
  RHS range        [1e+00, 3e+02]
Presolve removed 78 rows and 90 columns
Presolve time: 0.04s
Presolved: 779 rows, 630 columns, 2736 nonzeros
Variable types: 138 continuous, 492 integer (492 binary)

Root relaxation: objective 2.300000e+01, 101 iterations, 0.00 seconds

    Nodes    |    Current Node    |     Objective Bounds      |     Work
 Expl Unexpl |  Obj  Depth IntInf | Incumbent    BestBd   Gap | It/Node Time

     0     0   23.00000    0   56          -   23.00000      -     -    0s
     0     0   23.00000    0  149          -   23.00000      -     -    0s
     0     0   23.00000    0  140          -   23.00000      -     -    0s
     0     0   23.00000    0   59          -   23.00000      -     -    0s
     0     0   23.00000    0   73          -   23.00000      -     -    0s
H    0     0                     167.0000000   23.00000  86.2%     -    0s
H    0     0                     166.6666667   23.00000  86.2%     -    0s
H    0     0                     164.1666667   23.00000  86.0%     -    0s
H    0     0                     164.0000000   23.00000  86.0%     -    0s
     0     0   23.00000    0   76  164.00000   23.00000  86.0%     -    0s
H    0     0                     144.1666667   23.00000  84.0%     -    0s
H    0     0                     140.6666667   23.00000  83.6%     -    0s
H    0     0                     139.1666667   23.00000  83.5%     -    0s
     0     0   23.00000    0   87  139.16667   23.00000  83.5%     -    0s
H    0     0                      91.6666667   23.00000  74.9%     -    0s
H    0     0                      84.5000000   23.00000  72.8%     -    0s
H    0     0                      79.1666667   23.00000  70.9%     -    0s
     0     0   23.00000    0   54   79.16667   23.00000  70.9%     -    0s
H    0     0                      79.0000000   23.00000  70.9%     -    0s
     0     0   23.00000    0   92   79.00000   23.00000  70.9%     -    0s
     0     0   23.00000    0   74   79.00000   23.00000  70.9%     -    1s
H    0     0                      75.6666667   23.00000  69.6%     -    1s
H    0     0                      65.0000000   23.00000  64.6%     -    1s
H    0     0                      64.5000000   23.00000  64.3%     -    1s
     0     2   23.00000    0   66   64.50000   23.00000  64.3%     -    1s
H    9    16                      61.3333333   23.00000  62.5%  88.1    2s
H   16    16                      61.1666667   23.00000  62.4%  75.8    2s
H   34    64                      61.0000000   23.00000  62.3%  74.2    2s
H   36    64                      60.1666667   23.00000  61.8%  72.9    2s
H   40    64                      60.0000000   23.00000  61.7%  70.7    2s
H   97   128                      59.5000000   23.00000  61.3%  58.5    7s
H   98   128                      58.8333333   23.00000  60.9%  58.8    7s
H  106   128                      58.3333333   23.00000  60.6%  55.7    7s
H  113   128                      58.0833333   23.00000  60.4%  53.1    7s
H  129   160                      57.8611111   23.00000  60.2%  49.5    8s
H  131   160                      57.6666667   23.00000  60.1%  49.0    8s
H  133   160                      57.5000000   23.00000  60.0%  49.0    8s
H  161   192                      57.0000000   23.00000  59.6%  46.4   13s
H  173   192                      56.8333333   23.00000  59.5%  44.1   13s
H  195   254                      56.6666667   23.00000  59.4%  40.7   13s
H  641   754                      56.0000000   23.00000  58.9%  23.9   15s

Cutting planes:
  Learned: 39
  Gomory: 3
  Cover: 29
  Implied bound: 53
  Clique: 12
  MIR: 86
  StrongCG: 1
  Flow cover: 60
  GUB cover: 2
  RLT: 5
  Relax-and-lift: 88

Explored 800 nodes (26179 simplex iterations) in 15.21 seconds
Thread count was 32 (of 32 available processors)

Solution count 10: 56 56.6667 56.8333 ... 58.8333

Solve interrupted
Best objective 5.600000000000e+01, best bound 2.300000000000e+01, gap 58.9286%

Gurobi 9.1.2 (linux64) logging started Sun Mar 20 18:12:58 2022

Changed value of parameter LogFile to bruhat-s=6.log
   Prev:   Default: 
Changed value of parameter MIPFocus to 1
   Prev: 0  Min: 0  Max: 3  Default: 0
Changed value of parameter Threads to 32
   Prev: 0  Min: 0  Max: 1024  Default: 0
Warning: variables 0 and 120 have the same name "X[1,0]"
Warning: linear constraint 150 and linear constraint 151 have the same name "weight-constr-t5"
Warning: to let Gurobi read it back, use rlp format
Gurobi Optimizer version 9.1.2 build v9.1.2rc0 (linux64)
Thread count: 16 physical cores, 32 logical processors, using up to 32 threads
Optimize a model with 857 rows, 720 columns and 2496 nonzeros
Model fingerprint: 0x49291572
Variable types: 144 continuous, 576 integer (576 binary)
Coefficient statistics:
  Matrix range     [1e+00, 3e+02]
  Objective range  [2e-01, 2e-01]
  Bounds range     [1e+00, 1e+02]
  RHS range        [1e+00, 3e+02]
Presolve removed 78 rows and 90 columns
Presolve time: 0.02s
Presolved: 779 rows, 630 columns, 2736 nonzeros
Variable types: 138 continuous, 492 integer (492 binary)

Root relaxation: objective 2.300000e+01, 101 iterations, 0.00 seconds

    Nodes    |    Current Node    |     Objective Bounds      |     Work
 Expl Unexpl |  Obj  Depth IntInf | Incumbent    BestBd   Gap | It/Node Time

     0     0   23.00000    0   42          -   23.00000      -     -    0s
     0     0   23.00000    0  158          -   23.00000      -     -    0s
     0     0   23.00000    0  143          -   23.00000      -     -    0s
H    0     0                     121.5000000   23.00000  81.1%     -    0s
H    0     0                     110.1666667   23.00000  79.1%     -    0s
H    0     0                     109.1666667   23.00000  78.9%     -    0s
H    0     0                      74.6666667   23.00000  69.2%     -    0s
H    0     0                      69.1666667   23.00000  66.7%     -    0s
H    0     0                      69.0000000   23.00000  66.7%     -    0s
H    0     0                      68.3333333   23.00000  66.3%     -    0s
     0     0   23.00000    0   66   68.33333   23.00000  66.3%     -    0s
     0     0   23.00000    0   70   68.33333   23.00000  66.3%     -    0s
H    0     0                      67.8333333   23.00000  66.1%     -    0s
H    0     0                      67.5000000   23.00000  65.9%     -    0s
H    0     0                      67.3333333   23.00000  65.8%     -    0s
H    0     0                      67.0000000   23.00000  65.7%     -    0s
H    0     0                      66.6666667   23.00000  65.5%     -    0s
     0     0   23.00000    0   72   66.66667   23.00000  65.5%     -    0s
H    0     0                      66.5000000   23.00000  65.4%     -    0s
     0     0   23.00000    0  100   66.50000   23.00000  65.4%     -    0s
H    0     0                      65.6666667   23.00000  65.0%     -    0s
H    0     0                      65.5000000   23.00000  64.9%     -    0s
H    0     0                      64.5000000   23.00000  64.3%     -    0s
     0     0   23.00000    0   66   64.50000   23.00000  64.3%     -    0s
H    0     0                      63.5000000   23.00000  63.8%     -    0s
     0     0   23.00000    0  122   63.50000   23.00000  63.8%     -    0s
     0     0   23.00000    0   76   63.50000   23.00000  63.8%     -    0s
H    0     0                      62.5000000   23.00000  63.2%     -    1s
     0     2   23.00000    0   67   62.50000   23.00000  63.2%     -    1s
H    5     8                      62.1666667   23.00000  63.0%   119    1s
    95   126   24.00000    6  112   62.16667   23.00000  63.0%  81.5    6s
H   96   126                      61.1666667   23.00000  62.4%  80.6    6s
H   97   126                      60.8333333   23.00000  62.2%  79.8    6s
H   97   126                      57.1666667   23.00000  59.8%  79.8    6s
H   98   126                      56.6666667   23.00000  59.4%  79.1    6s
H  166   188                      56.5000000   23.00000  59.3%  57.1    6s
H  173   188                      56.3333333   23.00000  59.2%  56.0    6s
  4198  3587   23.00000   20  111   56.33333   23.00000  59.2%  20.9   10s
  4748  4022   23.00000   22  111   56.33333   23.00000  59.2%  28.4   15s
  4912  4000   23.00000   23  106   56.33333   23.00000  59.2%  29.5   21s
  6552  5288   23.00000   40  109   56.33333   23.00000  59.2%  36.2   25s
H10162  6000                      56.1666667   23.00000  59.1%  49.8   29s
 10502  6575   43.00391   79   72   56.16667   23.00000  59.1%  50.9   32s
H10508  6401                      55.8888889   23.00000  58.8%  50.9   32s
H10802  6139                      55.6666667   23.00000  58.7%  51.0   32s
 14031  7976   52.74427   63   31   55.66667   23.00000  58.7%  54.5   35s
H17963  9913                      55.6666665   23.00000  58.7%  60.0   39s
 19246 11245   23.50903   86  112   55.66667   23.00000  58.7%  64.2   41s
H19300 11245                      55.6666650   23.00000  58.7%  64.4   41s
H21190 12638                      55.6666650   23.00000  58.7%  67.3   44s
 23084 13752   38.33340   78   50   55.66666   23.00000  58.7%  68.9   46s
H24266 13724                      55.0000000   23.00000  58.2%  69.0   46s
H24900 16207                      54.8333333   23.00000  58.1%  69.5   47s
H25308 16184                      54.5000000   23.00000  57.8%  69.8   47s
H28347 16200                      54.3333333   23.00000  57.7%  71.0   54s
H28362 16200                      54.3333253   23.00000  57.7%  71.0   54s
H28367 16197                      54.2222222   23.00000  57.6%  71.0   54s
 28383 18609   23.66667   75   94   54.22222   23.00000  57.6%  71.1   56s
H31262 18609                      54.2222214   23.00000  57.6%  72.0   56s
H31616 19090                      54.2222213   23.00000  57.6%  72.5   61s
H31654 19090                      54.2222208   23.00000  57.6%  72.4   61s
H31742 19090                      54.2222204   23.00000  57.6%  72.4   61s
H31909 19090                      54.2222201   23.00000  57.6%  72.3   61s
 32487 27137   36.96179   63   52   54.22222   23.00000  57.6%  72.2   78s
H33116 27137                      54.2222199   23.00000  57.6%  72.1   78s
H36406 27104                      54.0000000   23.00000  57.4%  71.4   78s
H36938 26992                      53.5000000   23.00000  57.0%  71.3   78s
H45067 27052                      53.3333333   23.00000  56.9%  71.5   85s
H45083 26958                      53.0000000   23.00000  56.6%  71.5   85s
 49776 32938     cutoff   56        53.00000   23.00000  56.6%  70.4   91s
 58020 35507     cutoff   57        53.00000   23.00000  56.6%  70.2   95s
 64559 42991   23.00000   60   74   53.00000   23.00000  56.6%  69.5  102s
 73572 44425   46.76274   92   32   53.00000   23.00000  56.6%  68.8  107s
 80894 50115 infeasible   88        53.00000   23.00000  56.6%  67.5  112s
 88057 50130     cutoff   81        53.00000   23.00000  56.6%  66.1  120s
 95113 58034   39.50000   88   51   53.00000   23.00000  56.6%  64.9  127s
 111765 62155   34.04762   73   72   53.00000   23.00000  56.6%  62.9  132s
 120165 66243   38.88427   83   73   53.00000   23.00000  56.6%  62.2  137s
 124458 70147   24.33333   79   61   53.00000   23.00000  56.6%  62.0  142s
 138716 74759   23.16667   76   67   53.00000   23.00000  56.6%  61.1  147s
 143265 76888   33.14104   64   72   53.00000   23.00000  56.6%  60.9  150s
 154074 82687   27.08333   72   63   53.00000   23.00000  56.6%  59.8  156s
 161492 84047   37.66929   96   55   53.00000   23.00000  56.6%  59.6  161s
 170922 88521   26.16667   56   55   53.00000   23.00000  56.6%  58.9  167s
 182411 93475   23.00000   58   69   53.00000   23.00000  56.6%  58.1  171s
 189284 96748   45.83333   94   33   53.00000   23.00000  56.6%  57.8  175s
 201644 100978   25.42733   88   77   53.00000   23.00000  56.6%  57.3  181s
 211293 104666 infeasible   85        53.00000   23.00000  56.6%  57.0  186s
 215511 107764   50.06322   85   77   53.00000   23.00000  56.6%  57.0  191s
 221271 110571     cutoff   89        53.00000   23.00000  56.6%  56.9  195s
 233257 114475   23.00000   61   75   53.00000   23.00000  56.6%  56.6  202s
 236597 114497   23.00608   66  101   53.00000   23.00000  56.6%  56.5  210s
 243655 117284     cutoff   90        53.00000   23.00000  56.6%  56.3  216s
 253417 123848     cutoff   89        53.00000   23.00000  56.6%  56.1  224s
 258693 127963   27.66667   77   53   53.00000   23.00000  56.6%  56.0  229s
 266695 131542 infeasible   80        53.00000   23.00000  56.6%  55.9  233s
 273817 131556   27.60000   88   53   53.00000   23.00000  56.6%  55.8  240s
H273822 131556                      52.9999997   23.00000  56.6%  55.8  240s
H274000 134049                      52.9999997   23.00000  56.6%  55.8  243s
 280594 135810   40.66667   94   24   53.00000   23.00000  56.6%  55.7  246s
 284801 139475   34.14789   74   48   53.00000   23.00000  56.6%  55.7  250s
 297520 143889   50.18889   92   42   53.00000   23.00000  56.6%  55.7  255s
 306072 146316   25.50000   60   84   53.00000   23.00000  56.6%  55.7  260s
 312125 152470   26.33333   61   76   53.00000   23.00000  56.6%  55.7  265s
H313750 152470                      52.9999997   23.00000  56.6%  55.7  265s
H318343 156075                      52.9999997   23.00000  56.6%  55.7  267s
H318343 156074                      52.9999992   23.00000  56.6%  55.7  267s
H318500 156074                      52.9999992   23.00000  56.6%  55.7  267s
H327010 157973                      52.9999992   23.00000  56.6%  55.5  269s
H327010 157973                      52.9999991   23.00000  56.6%  55.5  269s
H327346 157973                      52.9999987   23.00000  56.6%  55.4  269s
H327839 157973                      52.9999987   23.00000  56.6%  55.4  269s
H329684 157973                      52.9999984   23.00000  56.6%  55.4  269s
H330961 160252                      52.9999983   23.00000  56.6%  55.4  272s
H331997 160252                      52.9999982   23.00000  56.6%  55.3  272s
H335430 162076                      52.9999982   23.00000  56.6%  55.3  274s
H336323 162076                      52.9999982   23.00000  56.6%  55.3  274s
H337942 162076                      52.9999982   23.00000  56.6%  55.2  274s
 340797 162088   25.40436   58  125   53.00000   23.00000  56.6%  55.0  277s
H340803 162088                      52.9999981   23.00000  56.6%  55.0  277s
 340859 163808   25.66772   59   96   53.00000   23.00000  56.6%  55.0  280s
H340900 163808                      52.9999981   23.00000  56.6%  55.0  280s
H346338 166162                      52.9999981   23.00000  56.6%  54.8  282s
 350778 169181   23.00000   71   73   53.00000   23.00000  56.6%  54.7  286s
 364227 171117   23.17742   69   95   53.00000   23.00000  56.6%  54.2  302s
H364241 171117                      52.9999981   23.00000  56.6%  54.2  302s
H367706 172759                      52.9999980   23.00000  56.6%  54.2  304s
 368211 175042   48.46817   75   48   53.00000   23.00000  56.6%  54.2  307s
 376733 180158     cutoff   71        53.00000   23.00000  56.6%  54.2  312s
 381644 184463   24.17187   71   53   53.00000   23.00000  56.6%  54.1  316s
 390402 184485   49.42063   99   19   53.00000   23.00000  56.6%  54.0  324s
 390444 186747   49.42063   99   19   53.00000   23.00000  56.6%  54.0  326s
 399601 190502   24.50052   73   79   53.00000   23.00000  56.6%  53.8  332s
 409366 195002   46.51411   91   70   53.00000   23.00000  56.6%  53.5  336s
 413720 199090   37.00000   78   59   53.00000   23.00000  56.6%  53.5  340s
 426872 201818 infeasible   73        53.00000   23.00000  56.6%  53.4  352s
 433377 204337   32.47100   83   78   53.00000   23.00000  56.6%  53.2  364s
 433414 206958   26.00000   83   78   53.00000   23.00000  56.6%  53.2  367s
 442293 210384     cutoff  100        53.00000   23.00000  56.6%  53.0  371s
 448615 213541   51.08333   93   25   53.00000   23.00000  56.6%  52.8  375s
 462887 216461   27.02423   84   61   53.00000   23.00000  56.6%  52.5  387s
 462941 219376   26.08333   83   67   53.00000   23.00000  56.6%  52.5  390s
 469002 219401   24.66667   88   57   53.00000   23.00000  56.6%  52.3  399s
 469039 221808   24.66667   89   62   53.00000   23.00000  56.6%  52.3  401s
 477466 227072   40.16667   81   53   53.00000   23.00000  56.6%  52.1  408s
 487866 228197   48.01180   85   53   53.00000   23.00000  56.6%  52.0  410s
 496051 232063   33.86573   80   65   53.00000   23.00000  56.6%  51.9  415s
 504839 235942     cutoff   88        53.00000   23.00000  56.6%  51.7  420s
 518534 241853   23.00000   83   81   53.00000   23.00000  56.6%  51.6  426s
 526988 246459   42.48446   92   26   53.00000   23.00000  56.6%  51.6  432s
 537028 250129   46.33333   90   41   53.00000   23.00000  56.6%  51.4  436s
 541673 253715   42.01676   82   68   53.00000   23.00000  56.6%  51.3  440s
H550154 253757                      52.9999977   23.00000  56.6%  51.3  444s

Cutting planes:
  Learned: 109
  Gomory: 5
  Cover: 94
  Implied bound: 109
  Clique: 23
  MIR: 404
  StrongCG: 7
  Flow cover: 469
  GUB cover: 6
  RLT: 17
  Relax-and-lift: 273

Explored 550221 nodes (28232774 simplex iterations) in 444.35 seconds
Thread count was 32 (of 32 available processors)

Solution count 10: 53 53 53 ... 53

Solve interrupted
Best objective 5.299999768915e+01, best bound 2.300000000000e+01, gap 56.6038%

Gurobi 9.1.2 (linux64) logging started Sun Mar 20 18:26:27 2022

Changed value of parameter LogFile to bruhat-s=6.log
   Prev:   Default: 
Changed value of parameter MIPFocus to 1
   Prev: 0  Min: 0  Max: 3  Default: 0
Changed value of parameter Threads to 32
   Prev: 0  Min: 0  Max: 1024  Default: 0
Warning: variables 0 and 120 have the same name "X[1,0]"
Warning: linear constraint 150 and linear constraint 151 have the same name "weight-constr-t5"
Warning: to let Gurobi read it back, use rlp format
Gurobi Optimizer version 9.1.2 build v9.1.2rc0 (linux64)
Thread count: 16 physical cores, 32 logical processors, using up to 32 threads
Optimize a model with 857 rows, 720 columns and 2496 nonzeros
Model fingerprint: 0xd8c8932e
Variable types: 144 continuous, 576 integer (576 binary)
Coefficient statistics:
  Matrix range     [1e+00, 3e+02]
  Objective range  [2e-01, 2e-01]
  Bounds range     [1e+00, 1e+02]
  RHS range        [1e+00, 3e+02]
Presolve removed 78 rows and 90 columns
Presolve time: 0.02s
Presolved: 779 rows, 630 columns, 2736 nonzeros
Variable types: 138 continuous, 492 integer (492 binary)

Root relaxation: objective 2.300000e+01, 98 iterations, 0.00 seconds

    Nodes    |    Current Node    |     Objective Bounds      |     Work
 Expl Unexpl |  Obj  Depth IntInf | Incumbent    BestBd   Gap | It/Node Time

     0     0   23.00000    0   51          -   23.00000      -     -    0s
     0     0   23.00000    0   97          -   23.00000      -     -    0s
     0     0   23.00000    0   96          -   23.00000      -     -    0s
     0     0   23.00000    0   61          -   23.00000      -     -    0s
     0     0   23.00000    0   81          -   23.00000      -     -    0s
H    0     0                     170.1666667   23.00000  86.5%     -    0s
     0     0   23.00000    0   55  170.16667   23.00000  86.5%     -    0s
H    0     0                     169.8333333   23.00000  86.5%     -    0s
     0     0   23.00000    0   68  169.83333   23.00000  86.5%     -    0s
H    0     0                     157.0000000   23.00000  85.4%     -    0s
H    0     0                     156.6666667   23.00000  85.3%     -    0s
H    0     0                     137.3333333   23.00000  83.3%     -    0s
H    0     0                     137.0000000   23.00000  83.2%     -    0s
H    0     0                     136.6666667   23.00000  83.2%     -    0s
H    0     0                     118.8333333   23.00000  80.6%     -    0s
H    0     0                     118.5000000   23.00000  80.6%     -    0s
     0     0   23.00000    0   56  118.50000   23.00000  80.6%     -    0s
     0     0   23.00000    0   60  118.50000   23.00000  80.6%     -    0s
H    0     0                     118.0000000   23.00000  80.5%     -    0s
     0     0   23.00000    0   52  118.00000   23.00000  80.5%     -    0s
H    0     0                      86.0000000   23.00000  73.3%     -    0s
H    0     0                      82.3333333   23.00000  72.1%     -    0s
H    0     2                      81.6666667   23.00000  71.8%     -    1s
     0     2   23.00000    0   52   81.66667   23.00000  71.8%     -    1s
H    9    16                      81.3333333   23.00000  71.7%  72.4    1s
H   10    16                      77.5000000   23.00000  70.3%  67.1    1s
H   34    61                      77.3333333   23.00000  70.3%  31.7    1s
H   36    61                      76.2500000   23.00000  69.8%  30.7    1s
H   47    61                      75.8333333   23.00000  69.7%  26.0    1s
H   56    61                      72.0000000   23.00000  68.1%  25.9    1s
H   96   124                      70.8333333   23.00000  67.5%  32.2    4s
H   96   124                      69.1666667   23.00000  66.7%  32.2    4s
H   97   124                      68.2500000   23.00000  66.3%  32.2    4s
H  102   124                      68.1666667   23.00000  66.3%  31.2    4s
H  104   124                      65.5000000   23.00000  64.9%  30.7    4s
H  111   124                      64.3333333   23.00000  64.2%  30.5    4s
H  128   154                      62.8333333   23.00000  63.4%  30.7    6s
H  135   154                      62.6666667   23.00000  63.3%  30.3    6s
H  140   154                      62.5000000   23.00000  63.2%  29.9    6s
H  145   154                      60.7222222   23.00000  62.1%  29.1    6s
H  160   186                      59.2222222   23.00000  61.2%  28.1   10s
H  170   186                      58.3888889   23.00000  60.6%  26.9   10s
H  190   186                      58.1666667   23.00000  60.5%  33.9   10s
H  256   281                      57.3333333   23.00000  59.9%  28.5   12s
H  258   281                      56.3333333   23.00000  59.2%  28.4   12s
H  273   281                      56.0000000   23.00000  58.9%  27.9   12s

Cutting planes:
  Learned: 16
  Cover: 19
  Implied bound: 38
  Clique: 6
  MIR: 39
  StrongCG: 1
  Flow cover: 43
  GUB cover: 1
  Relax-and-lift: 63

Explored 330 nodes (15560 simplex iterations) in 13.70 seconds
Thread count was 32 (of 32 available processors)

Solution count 10: 56 56.3333 57.3333 ... 62.8333

Solve interrupted
Best objective 5.600000000000e+01, best bound 2.300000000000e+01, gap 58.9286%
